50

  0    1    2    3    4    1    2    3    4    5    2    3    4    5    6    3    4    5    6    7    4    5    6    7    8    5    6    7    8    9    6    7    8    9   10    7    8    9   10   11    8    9   10   11   12    9   10   11   12   13  
  1    0    1    2    3    2    1    2    3    4    3    2    3    4    5    4    3    4    5    6    5    4    5    6    7    6    5    6    7    8    7    6    7    8    9    8    7    8    9   10    9    8    9   10   11   10    9   10   11   12  
  2    1    0    1    2    3    2    1    2    3    4    3    2    3    4    5    4    3    4    5    6    5    4    5    6    7    6    5    6    7    8    7    6    7    8    9    8    7    8    9   10    9    8    9   10   11   10    9   10   11  
  3    2    1    0    1    4    3    2    1    2    5    4    3    2    3    6    5    4    3    4    7    6    5    4    5    8    7    6    5    6    9    8    7    6    7   10    9    8    7    8   11   10    9    8    9   12   11   10    9   10  
  4    3    2    1    0    5    4    3    2    1    6    5    4    3    2    7    6    5    4    3    8    7    6    5    4    9    8    7    6    5   10    9    8    7    6   11   10    9    8    7   12   11   10    9    8   13   12   11   10    9  
  1    2    3    4    5    0    1    2    3    4    1    2    3    4    5    2    3    4    5    6    3    4    5    6    7    4    5    6    7    8    5    6    7    8    9    6    7    8    9   10    7    8    9   10   11    8    9   10   11   12  
  2    1    2    3    4    1    0    1    2    3    2    1    2    3    4    3    2    3    4    5    4    3    4    5    6    5    4    5    6    7    6    5    6    7    8    7    6    7    8    9    8    7    8    9   10    9    8    9   10   11  
  3    2    1    2    3    2    1    0    1    2    3    2    1    2    3    4    3    2    3    4    5    4    3    4    5    6    5    4    5    6    7    6    5    6    7    8    7    6    7    8    9    8    7    8    9   10    9    8    9   10  
  4    3    2    1    2    3    2    1    0    1    4    3    2    1    2    5    4    3    2    3    6    5    4    3    4    7    6    5    4    5    8    7    6    5    6    9    8    7    6    7   10    9    8    7    8   11   10    9    8    9  
  5    4    3    2    1    4    3    2    1    0    5    4    3    2    1    6    5    4    3    2    7    6    5    4    3    8    7    6    5    4    9    8    7    6    5   10    9    8    7    6   11   10    9    8    7   12   11   10    9    8  
  2    3    4    5    6    1    2    3    4    5    0    1    2    3    4    1    2    3    4    5    2    3    4    5    6    3    4    5    6    7    4    5    6    7    8    5    6    7    8    9    6    7    8    9   10    7    8    9   10   11  
  3    2    3    4    5    2    1    2    3    4    1    0    1    2    3    2    1    2    3    4    3    2    3    4    5    4    3    4    5    6    5    4    5    6    7    6    5    6    7    8    7    6    7    8    9    8    7    8    9   10  
  4    3    2    3    4    3    2    1    2    3    2    1    0    1    2    3    2    1    2    3    4    3    2    3    4    5    4    3    4    5    6    5    4    5    6    7    6    5    6    7    8    7    6    7    8    9    8    7    8    9  
  5    4    3    2    3    4    3    2    1    2    3    2    1    0    1    4    3    2    1    2    5    4    3    2    3    6    5    4    3    4    7    6    5    4    5    8    7    6    5    6    9    8    7    6    7   10    9    8    7    8  
  6    5    4    3    2    5    4    3    2    1    4    3    2    1    0    5    4    3    2    1    6    5    4    3    2    7    6    5    4    3    8    7    6    5    4    9    8    7    6    5   10    9    8    7    6   11   10    9    8    7  
  3    4    5    6    7    2    3    4    5    6    1    2    3    4    5    0    1    2    3    4    1    2    3    4    5    2    3    4    5    6    3    4    5    6    7    4    5    6    7    8    5    6    7    8    9    6    7    8    9   10  
  4    3    4    5    6    3    2    3    4    5    2    1    2    3    4    1    0    1    2    3    2    1    2    3    4    3    2    3    4    5    4    3    4    5    6    5    4    5    6    7    6    5    6    7    8    7    6    7    8    9  
  5    4    3    4    5    4    3    2    3    4    3    2    1    2    3    2    1    0    1    2    3    2    1    2    3    4    3    2    3    4    5    4    3    4    5    6    5    4    5    6    7    6    5    6    7    8    7    6    7    8  
  6    5    4    3    4    5    4    3    2    3    4    3    2    1    2    3    2    1    0    1    4    3    2    1    2    5    4    3    2    3    6    5    4    3    4    7    6    5    4    5    8    7    6    5    6    9    8    7    6    7  
  7    6    5    4    3    6    5    4    3    2    5    4    3    2    1    4    3    2    1    0    5    4    3    2    1    6    5    4    3    2    7    6    5    4    3    8    7    6    5    4    9    8    7    6    5   10    9    8    7    6  
  4    5    6    7    8    3    4    5    6    7    2    3    4    5    6    1    2    3    4    5    0    1    2    3    4    1    2    3    4    5    2    3    4    5    6    3    4    5    6    7    4    5    6    7    8    5    6    7    8    9  
  5    4    5    6    7    4    3    4    5    6    3    2    3    4    5    2    1    2    3    4    1    0    1    2    3    2    1    2    3    4    3    2    3    4    5    4    3    4    5    6    5    4    5    6    7    6    5    6    7    8  
  6    5    4    5    6    5    4    3    4    5    4    3    2    3    4    3    2    1    2    3    2    1    0    1    2    3    2    1    2    3    4    3    2    3    4    5    4    3    4    5    6    5    4    5    6    7    6    5    6    7  
  7    6    5    4    5    6    5    4    3    4    5    4    3    2    3    4    3    2    1    2    3    2    1    0    1    4    3    2    1    2    5    4    3    2    3    6    5    4    3    4    7    6    5    4    5    8    7    6    5    6  
  8    7    6    5    4    7    6    5    4    3    6    5    4    3    2    5    4    3    2    1    4    3    2    1    0    5    4    3    2    1    6    5    4    3    2    7    6    5    4    3    8    7    6    5    4    9    8    7    6    5  
  5    6    7    8    9    4    5    6    7    8    3    4    5    6    7    2    3    4    5    6    1    2    3    4    5    0    1    2    3    4    1    2    3    4    5    2    3    4    5    6    3    4    5    6    7    4    5    6    7    8  
  6    5    6    7    8    5    4    5    6    7    4    3    4    5    6    3    2    3    4    5    2    1    2    3    4    1    0    1    2    3    2    1    2    3    4    3    2    3    4    5    4    3    4    5    6    5    4    5    6    7  
  7    6    5    6    7    6    5    4    5    6    5    4    3    4    5    4    3    2    3    4    3    2    1    2    3    2    1    0    1    2    3    2    1    2    3    4    3    2    3    4    5    4    3    4    5    6    5    4    5    6  
  8    7    6    5    6    7    6    5    4    5    6    5    4    3    4    5    4    3    2    3    4    3    2    1    2    3    2    1    0    1    4    3    2    1    2    5    4    3    2    3    6    5    4    3    4    7    6    5    4    5  
  9    8    7    6    5    8    7    6    5    4    7    6    5    4    3    6    5    4    3    2    5    4    3    2    1    4    3    2    1    0    5    4    3    2    1    6    5    4    3    2    7    6    5    4    3    8    7    6    5    4  
  6    7    8    9   10    5    6    7    8    9    4    5    6    7    8    3    4    5    6    7    2    3    4    5    6    1    2    3    4    5    0    1    2    3    4    1    2    3    4    5    2    3    4    5    6    3    4    5    6    7  
  7    6    7    8    9    6    5    6    7    8    5    4    5    6    7    4    3    4    5    6    3    2    3    4    5    2    1    2    3    4    1    0    1    2    3    2    1    2    3    4    3    2    3    4    5    4    3    4    5    6  
  8    7    6    7    8    7    6    5    6    7    6    5    4    5    6    5    4    3    4    5    4    3    2    3    4    3    2    1    2    3    2    1    0    1    2    3    2    1    2    3    4    3    2    3    4    5    4    3    4    5  
  9    8    7    6    7    8    7    6    5    6    7    6    5    4    5    6    5    4    3    4    5    4    3    2    3    4    3    2    1    2    3    2    1    0    1    4    3    2    1    2    5    4    3    2    3    6    5    4    3    4  
 10    9    8    7    6    9    8    7    6    5    8    7    6    5    4    7    6    5    4    3    6    5    4    3    2    5    4    3    2    1    4    3    2    1    0    5    4    3    2    1    6    5    4    3    2    7    6    5    4    3  
  7    8    9   10   11    6    7    8    9   10    5    6    7    8    9    4    5    6    7    8    3    4    5    6    7    2    3    4    5    6    1    2    3    4    5    0    1    2    3    4    1    2    3    4    5    2    3    4    5    6  
  8    7    8    9   10    7    6    7    8    9    6    5    6    7    8    5    4    5    6    7    4    3    4    5    6    3    2    3    4    5    2    1    2    3    4    1    0    1    2    3    2    1    2    3    4    3    2    3    4    5  
  9    8    7    8    9    8    7    6    7    8    7    6    5    6    7    6    5    4    5    6    5    4    3    4    5    4    3    2    3    4    3    2    1    2    3    2    1    0    1    2    3    2    1    2    3    4    3    2    3    4  
 10    9    8    7    8    9    8    7    6    7    8    7    6    5    6    7    6    5    4    5    6    5    4    3    4    5    4    3    2    3    4    3    2    1    2    3    2    1    0    1    4    3    2    1    2    5    4    3    2    3  
 11   10    9    8    7   10    9    8    7    6    9    8    7    6    5    8    7    6    5    4    7    6    5    4    3    6    5    4    3    2    5    4    3    2    1    4    3    2    1    0    5    4    3    2    1    6    5    4    3    2  
  8    9   10   11   12    7    8    9   10   11    6    7    8    9   10    5    6    7    8    9    4    5    6    7    8    3    4    5    6    7    2    3    4    5    6    1    2    3    4    5    0    1    2    3    4    1    2    3    4    5  
  9    8    9   10   11    8    7    8    9   10    7    6    7    8    9    6    5    6    7    8    5    4    5    6    7    4    3    4    5    6    3    2    3    4    5    2    1    2    3    4    1    0    1    2    3    2    1    2    3    4  
 10    9    8    9   10    9    8    7    8    9    8    7    6    7    8    7    6    5    6    7    6    5    4    5    6    5    4    3    4    5    4    3    2    3    4    3    2    1    2    3    2    1    0    1    2    3    2    1    2    3  
 11   10    9    8    9   10    9    8    7    8    9    8    7    6    7    8    7    6    5    6    7    6    5    4    5    6    5    4    3    4    5    4    3    2    3    4    3    2    1    2    3    2    1    0    1    4    3    2    1    2  
 12   11   10    9    8   11   10    9    8    7   10    9    8    7    6    9    8    7    6    5    8    7    6    5    4    7    6    5    4    3    6    5    4    3    2    5    4    3    2    1    4    3    2    1    0    5    4    3    2    1  
  9   10   11   12   13    8    9   10   11   12    7    8    9   10   11    6    7    8    9   10    5    6    7    8    9    4    5    6    7    8    3    4    5    6    7    2    3    4    5    6    1    2    3    4    5    0    1    2    3    4  
 10    9   10   11   12    9    8    9   10   11    8    7    8    9   10    7    6    7    8    9    6    5    6    7    8    5    4    5    6    7    4    3    4    5    6    3    2    3    4    5    2    1    2    3    4    1    0    1    2    3  
 11   10    9   10   11   10    9    8    9   10    9    8    7    8    9    8    7    6    7    8    7    6    5    6    7    6    5    4    5    6    5    4    3    4    5    4    3    2    3    4    3    2    1    2    3    2    1    0    1    2  
 12   11   10    9   10   11   10    9    8    9   10    9    8    7    8    9    8    7    6    7    8    7    6    5    6    7    6    5    4    5    6    5    4    3    4    5    4    3    2    3    4    3    2    1    2    3    2    1    0    1  
 13   12   11   10    9   12   11   10    9    8   11   10    9    8    7   10    9    8    7    6    9    8    7    6    5    8    7    6    5    4    7    6    5    4    3    6    5    4    3    2    5    4    3    2    1    4    3    2    1    0  

  0    6   70    0    0    0    0    0   76   60    0  100    0   42    0   75    0   22    0    0    0   77   92   18   75   67    0    0    0   73    0   91   41   60   88    0   20    0   84    0    0   43    0    0    0    0    3   19   25    0  
 30    0   91    0    0    0    0    0   88   90    0   56    0   88    0   60    0   96    0    0    0   76    2   86   42   62    0    0    0   19    0   34   93    0   56    0   42    0    4    0    0   50    0    0   72    0   45   73   56    0  
 18    7    0    0    0   45   22    0   77   44    0   81   22   89   12   79   28   58    0    0    3   51   22   79   34    2   39    0   98   76    0   73   93    0   17   72   28   65   81    0    0   83    0    0    0    0   15   40   11    0  
  0    0    0    0    0   77    0   78    0    0    0    0   28    0    0   82   65   32   59    0  100   78    0    0    0    0   12   65   17    0    0   59    0    0    0   85    0    0   94    0    0    0    1   50    5    0    0    2    0    0  
  0    0    0   56    0    0   19    0    0    0   78   61   87   48    0    0    0    0    0   37    0    0   12   68    0    0    0    0    0   71   91    0   11    1    0    0   31    0    0    0   10    0    0    0    0    0    0    0    0    0  
  0    0   41    4    0    0    0   61    0    0    0    0   27    0    0   72   57   18   97    0   73   59    0    0   46    0   54   70   86    0    0   50    0    0    0   17    0   57   18   56    0   43   28    3   55    0    0   76   47    0  
  0    0   82    0   57    0    0    0    0   59   97   93   91   15   25    0   24    0    0  100   53   53   45   51    0    0    0    0    6   24    2   83    0   91    0   78   12   86   19    5   69   34    0    0    0   56    0   45   91   19  
  0    0    0  100    0   91    0    0    0    0    0    0   98    0    0   64   56   60   42    0   89   77    0    0    0    0   91   95   54    0    0   16    0    0    0    8    0    0   18    0    0    0   84   54   72    0    0   63   10    0  
 90   59   74    0    0    0    0    0    0   19    0   38    0   66    0   29    0    0    0    0    0    0   16   22   32    4    0    0    0   94    0    0   15    0   95    0   62    0    0    0    0   27    0    0    0    0   47    8   32    0  
 56   71   74    0    0    0   24    0   11    0   16   71   87   33   96   95   18   93    0   11   51   81   73   82   76   25   32    0   16   16   22    6   53   25    7   11   43    1   95    0   52   60    0    0    0    0   73   86   80    0  
  0    0    0    0   83    0   78    0    0   56    0   11    0   81   41    0    0    0    0   81    0    0   87   49    0    0    0    0    0   28   57    0    0   88    0    0   36    0    0    0   66    0    0    0    0    0    0    0    0    0  
 20   45   52    0   58    0   64    0   74   58   56    0    0   52   21    0    0    0    0   58    0    0   79   40   54    0    0    0    0   51   60   82    0   72   94    0   33    0   11    0   22  100    0    0    0    0   21    0   45    0  
  0    0  100   32    0    2    2   21    0   35    0    0    0    0   12   60   22   78   44    0   45   46    0    0    0    0   63   88   71   52    0   80    0    0    0   77   42   48   49   38    0    0   56   71   25    0   89    6   75    0  
 88   99   39    0   16    0   63    0   20   40   78   87    0    0   34    0    0    0    0   61    0   45   70   31   43   76    0    0   42   46   36    7   58   97   55   56   22   72   43    0   46   30    0   80    0    0    0   80   79    0  
  0    0   93    0    0    0   44    0    0   96   23   54   49   90    0    0   18   52    0    0   21   60   90   56    0    0   49   39   38   47   23   52    0   85    0    1   67   63   26    8   79   60    0    0    0   49    0   81   91   12  
 58   95   98   92    0   18    0    5   28   31    0    0   96    0    0    0   76   46    3    0    9   13    4    0   35   59    1   37   42   10    0   70    4    0   72   68    0    0   20    0    0   97   28   31    9    0   89   88    1    0  
  0    0    1   17    0   63   95   91    0   24    0    0   53    0   95   25    0    7   38    0   15   62    0    0    0    0   58   48   82   42    0   74    0    0    0   64   51   35   83   46    0    0   93   21   92   55    0   25   12    0  
 68   66    8   21    0   23    0   90    0   69    0    0   90    0   44   47   29    0   27    0   22   46    0    0    0   44   63   85   23   86   84   89   49    0    0   14   32   88  100    0    0   40    6   31    6    0   78   53    3    0  
  0    0    0   59    0   14    0    6    0    0    0    0   38    0    0   50   68   23    0    0   85   55   36    0    0    0    2    4   88    0    0    0    0    0    0   39    0    0   53   10    0    0   64   88   13    0    0   93    0    0  
  0   19    0    0   51    0   35   23    0   42   66   80    0   63    0    0   77    0    0    0    0    0   10   98    0    0    0    0    0   78   79    0    0   25    0    0   57    0    0    0   47   32    0    0    0    0    0    0    0    0  
  0    0    9   19    0   22    9   68    0   94    0    0   56    0   72   68   77   24    6    0    0   93    0    0    0    0   93    4   82   40    0    2    0    0    0   70   93   64   35   14    0    0   94   95    3    0    0   86   33    0  
 69   15   83   46    0   22   49   68    0   71    0    0   65   91   69   65    2   87   15    0   69    0    0   23    0   25   49   89    9   20    0   29   47    0    8   61   53   68    9    0    0   37   28   18   33    0   59   71   75    0  
 56   50   21    0   24    0   57    0   38   90   92   85    0   93   80    0    0    0    0   36    0    0    0   86   16    2    0    0    0   30   51   27   20   54   94    0   76    0   25   86   45    3    0    0   76    0   18   53   91    0  
 24   66   93   39   22    0   47    0   76   85    5   29    0   64   67    0    0    0    0   87    0   90   12    0   10   19    0    0   37   22   13   54   91   53   33    0   18    0   78    0   46   54    0    0    0    0   80   57   86    0  
 49   32    8    0    0    0    0    0   52   26   71   96    0   90    0   53    0    0    0    0    0    0   86   39    0   13    0    0    0   63    5    0   10    0   60    0    7    0   95    0    0   51    0    0    0   49   94   46   44    0  
 60   14   96    0    0    0    0    0   44    4    0    0    0    7    0   53    0   97    0    0    0   68    7   10   83    0    0    0    0   26    0    0    5    0   70    0   46    0   81    0    0   26    0    0    0    0   19   39    4    0  
  0    0   24   66   48   43    0   80    0   67   47    0   85    0   14   78   20   18   23    0   67   88    0    0    0    0    0    3   52   53    0   68    4   17    0   10    0   31    5   94    0    0   88   64   80    0   19    8   68    0  
  0    0    0   55    0   48    0   38    0    0    0    0   63    0   45   97   62   85   79    0   26   61    0    0    0    0   97    0   68    0    0    8    0    0    0   73    0   97   94   44    0    0   58   90   32    0    0   22   42    0  
  0    0   13   30    0   59   87   90    0   77    0    0   86   85   16   80   65   76   99    0   18   73    0   37    0    0   37    8    0   25   72   80    0    0    0   10   17   70   79   64    0    0   19   77   49   60    0   66   55   24  
 86   56   31    0   21    0   57    0    9    1   33   68   59   72   34   56   35   82    0   38   90    7   68   99   14   17   43    0   86    0   72   74   63   46   68   28   96   47   30    0   27   85    0    0    0    1    2   87   16    0  
  0    0    0    0   10    0   57    0    0   53   79  100    0   71   13    0    0    0    0   21    0   58   66   13    0    0    0    0   61   20    0   51    0   91    0    0   65   29   89   36   48    0    0    0    0   53    0    0   35   85  
 64   55   91   41    0   47   15   30    0   58    0   15   61   10   94   61   83   46    0    0   65   59   37   99    0    0    9    3    2   43   63    0    0   29    0   58   56   15   30   24    0   10   14   89    0   48   95   57   89   49  
 21   52   93    0    0    0    0    0   44   73    0    0    0   43    0   66    0   86    0   26    0   42   68   96   67   95    0    0   29   96    0    0    0    0   76    0   17    0   80    0    0   10    0    0    0    0   58   94   90    0  
  0    0    0    0   76    0   92    0    0    6   43   89    0   16   73    0    0    0    0    3    0    0    2   54    0    0    0    0    0   35   79   47    0    0    0    0   55   46    0   34   27    0    0    0    0   74    0    0    0   65  
  2   43   47    0    0    0    0    0   45   14   78   87    0   86    0   96    0    0    0    0    0   91   78   98   72   73    0    0    0    3    0   83   81    0    0    0   56    0   31    0    0   99    0    0    0    0   73   80   34    0  
  0    0   30   74    0   23    0   52    0   73    0    0   33    0   56   36   77   22   30    0   57   28    0    0    0    0   75   20   26   36    0   73    0    0    0    0    0   56   89   62    0   99   57   22   66    0   91   78   87    0  
 28   95   75    0   24    0   68    0   42   67   81  100   37   65    6    0   97    1    0   20   89   85   64   56   84   80    0    0   56   63   71   83   14   91   30    0    0   61   83    0   43   82    0    0    0   63    0    6   97    0  
  0   54  100    0   59   98   92    0    0   19    0    0   59   40   69    0   69    1    0    0   26   88    0    0    0    0   96    7   99   73   54    6    0   13    0   67   86    0   24   80    0    0    0   71    0   56    0   63   98   32  
 67   48   86   80    0   70   25   88    0   74    0   60   70    6   81   74   59   74   85    0   32   96    9   36   68   87   39  100   37   27   46   17   48    0   99   94   81   13    0   89    0   72   61   82    0    0   85   51   81    0  
  0    0    0    0    0   16   12    0   94   24    0    0   80    0   84    0   23    0    0    0   71    0    0    0    0    0   22   84   44    0    9   15    0   88    0   72    0   84   36    0    0    0    0   69   56   87    0   43    0   18  
  0    0    0    0   93   21   31    0    0   69   45   36    0   99   32    0    0    0    0   66    0    0    6   15    0    0    0    0    0   75   80    0    0   56   72    0    1    0    0    0    0    0    0    0    0    0    0    0    0    0  
 21   68   56    0    0    0   66    0   66   63    0   95    0   10   42   80    0    1    0   86    0    3   17  100   86    2    0    0    0   44    0   27    9    0   33    0   22    0   10    0    0    0    0    0    0   33   25   86   64    0  
  0    0    0   54    0   59    0   99    0    0    0    0   62    0    0   56   91   98   50    0   44   46    0    0    0    0   10   26   77    0    0   58    0    0    0   37    0    0   72    0    0    0    0   89   57    0    0   53    0    0  
  0    0    0   65    0   40    0   86    0    0    0    0   37    0    0   87   93   58   77    0   12   71    0    0    0    0   60   37   22    0    0   47    0    0    0   85    0   18   58   75    0    0   39    0   79    0    0    2    0    0  
  0    0    0   53    0   86    0   87    0    0    0    0   18    0    0   59   48   24   61    0   65   26    0    0    0    0   45   11   24    0    0    0    0    0    0   77    0    0    0    0    0    0   31   50    0    0    0   96    0    0  
  0    0    0    0    0    0   53    0   43    0    0    0    0    0   15    0   81    0    0    0    0    0    0    0    0    0    0    0   32   35   96   14    0   22    0   45   87    4    0   78    0    0    0    0    0    0    0   67    0   85  
 56   53   29    0    0    0    0    0   51   72    0    0   11    0    0   29    0   30    0    0    0   76   44   20   25    5   51    0    0   94    0   20   98    0   14   11    0    0   63    0    0   72    0    0    0    0    0   42   97    0  
 78   18   19    9    0   40   72  100   68   38   77    0   40   61   80   42   50  100   63   99   99   74   88   91   67   54   47    6   19   42    0   58    4    0   56   65   43    2  100    0    0   81   74    5   37    0   18    0   41    0  
  1   50   43    0    0   51   15    0   28   85    0   16   72   16   19   20    8   14    0    0   96   74   26    7   70   57   70   87   80   43   27   30   93    0   28   62   12   47    5    0    0    7    0    0   76    0   22    7    0    0  
  0    0    0    0    0    0   53    0    0    0    0   66    0    0   44    0    0    0    0    0    0    0    0    0    0    0    0    0   52    0   48   83    0   37    0    0    0   16    0   38    0    0    0    0    0   82    0    0    0    0  
